(set-logic ALL)
(declare-const BAV1 Bool)
(declare-const BAV2 Bool)
(declare-const BAV3 Bool)
(declare-const BAV4 Bool)
(declare-const BAV5 Bool)
(declare-const GEN7 String)
(declare-const GEN6 String)
(declare-const GEN5 String)
(declare-const GEN4 String)
(declare-const GEN3 String)
(declare-const GEN2 String)
(declare-const GEN1 String)
(declare-fun x () String)
(declare-fun y () String)
(declare-fun z () String)
(assert (= (str.rev "ABC") "CBA"))
(assert (= (str.rev "") ""))
(assert (= (str.rev "A") x))
(assert (= (str.rev (str.++ x y)) "BCA"))
(assert (= (str.rev y) "BC"))
(assert (= BAV1 (= (str.rev "ABC") "CBA")))
(assert (= BAV2 (= (str.rev "") "")))
(assert (= BAV3 (= (str.rev "A") x)))
(assert (= BAV4 (= (str.rev (str.++ x y)) "BCA")))
(assert (= BAV5 (= (str.rev y) "BC")))
(check-sat)
(get-model)